************************************************************************
file with basedata            : md371_.bas
initial value random generator: 2073504841
************************************************************************
projects                      :  1
jobs (incl. supersource/sink ):  22
horizon                       :  174
RESOURCES
  - renewable                 :  2   R
  - nonrenewable              :  2   N
  - doubly constrained        :  0   D
************************************************************************
PROJECT INFORMATION:
pronr.  #jobs rel.date duedate tardcost  MPM-Time
    1     20      0       22        9       22
************************************************************************
PRECEDENCE RELATIONS:
jobnr.    #modes  #successors   successors
   1        1          3           2   3   4
   2        3          3           6   9  14
   3        3          3           5   7  15
   4        3          3           6  10  12
   5        3          2          16  18
   6        3          1           8
   7        3          3          13  14  16
   8        3          1          17
   9        3          3          13  19  20
  10        3          3          11  14  16
  11        3          2          17  18
  12        3          1          15
  13        3          1          21
  14        3          2          18  19
  15        3          2          17  20
  16        3          1          21
  17        3          2          19  21
  18        3          1          20
  19        3          1          22
  20        3          1          22
  21        3          1          22
  22        1          0        
************************************************************************
REQUESTS/DURATIONS:
jobnr. mode duration  R 1  R 2  N 1  N 2
------------------------------------------------------------------------
  1      1     0       0    0    0    0
  2      1     6       7    0    9   10
         2     9       7    0    8   10
         3    10       0    8    8   10
  3      1     6       0    8    5    7
         2     9       6    0    4    6
         3    10       6    0    4    5
  4      1     2       0    9    5   10
         2     4       5    0    5   10
         3    10       5    0    4    9
  5      1     1       4    0    6    9
         2     1       0    9    5    7
         3     8       0    4    5    4
  6      1     1       0    9    6    9
         2     2       0    5    5    9
         3     8       5    0    5    9
  7      1     1       0    7    2    6
         2     3       0    3    2    4
         3    10       0    2    1    3
  8      1     1       8    0    3    5
         2     9       0    6    3    4
         3    10       0    4    3    2
  9      1     2       4    0    6    7
         2     5       0    4    5    5
         3     9       4    0    5    3
 10      1     3       0    3    6    6
         2     4       0    3    5    6
         3    10       0    3    3    4
 11      1     2       7    0    7    2
         2     8       0    2    5    2
         3     9       7    0    4    1
 12      1     3       2    0    7    5
         2     3       0    8    6    4
         3    10       0    4    4    3
 13      1     2       4    0    7    4
         2     3       0    6    6    3
         3     5       3    0    5    2
 14      1     2       7    0    5    6
         2     8       0    6    4    5
         3    10       0    4    3    2
 15      1     4       9    0    7   10
         2     4       9    0    9    8
         3     7       0    6    3    7
 16      1     7       0    7   10    8
         2     7       8    0    9   10
         3    10       8    0    9    5
 17      1     5       1    0    7    9
         2     5       0    6    5    7
         3     8       0    6    2    6
 18      1     3       7    0    7    6
         2     6       0    3    7    5
         3     8       2    0    7    4
 19      1     5       8    0    8    9
         2     6       7    0    7    7
         3     7       0    9    4    7
 20      1     2       0    8   10    7
         2     3       0    6    8    6
         3     6       4    0    7    3
 21      1     7      10    0   10    9
         2     9       0    3    7    9
         3     9       6    0    7    8
 22      1     0       0    0    0    0
************************************************************************
RESOURCEAVAILABILITIES:
  R 1  R 2  N 1  N 2
   25   26  125  134
************************************************************************
MAXIMAL LAGS:
from  to  type  delay
    1   22   ES      0
    1    2   ES      0
    2   22   ES      0
    1    3   ES      0
    3   22   ES      0
    1    4   ES      0
    4   22   ES      0
    1    5   ES      0
    5   22   ES      0
    1    6   ES      0
    6   22   ES      0
    1    7   ES      0
    7   22   ES      0
    1    8   ES      0
    8   22   ES      0
    1    9   ES      0
    9   22   ES      0
    1   10   ES      0
   10   22   ES      0
    1   11   ES      0
   11   22   ES      0
    1   12   ES      0
   12   22   ES      0
    1   13   ES      0
   13   22   ES      0
    1   14   ES      0
   14   22   ES      0
    1   15   ES      0
   15   22   ES      0
    1   16   ES      0
   16   22   ES      0
    1   17   ES      0
   17   22   ES      0
    1   18   ES      0
   18   22   ES      0
    1   19   ES      0
   19   22   ES      0
    1   20   ES      0
   20   22   ES      0
    1   21   ES      0
   21   22   ES      0
    1   22   ES      0
    2    6   SS    -12
    2    6   SE     -2
    2    6   ES      3
    2    6   EE     -6
    2    9   SS      0
    2    9   SE      5
    2    9   ES     11
    2    9   EE      6
    2   14   SS     -9
    2   14   SE    -11
    2   14   ES      4
    2   14   EE     11
    3    5   SS    -12
    3    5   SE     -3
    3    5   ES     -9
    3    5   EE     10
    3    7   SS      9
    3    7   SE      3
    3    7   ES     -2
    3    7   EE      1
    3   15   SS      7
    3   15   SE      8
    3   15   ES     -4
    3   15   EE     -6
    4    6   SS    -11
    4    6   SE      3
    4    6   ES     10
    4    6   EE     -7
    4   10   SS     -9
    4   10   SE      9
    4   10   ES      4
    4   10   EE      9
    4   12   SS      4
    4   12   SE      2
    4   12   ES      9
    4   12   EE      2
    5   16   SS    -10
    5   16   SE      9
    5   16   ES     11
    5   16   EE      1
    5   18   SS      6
    5   18   SE      6
    5   18   ES     -9
    5   18   EE      0
    6    8   SS     -2
    6    8   SE      4
    6    8   ES      2
    6    8   EE     -7
    7   13   SS     -5
    7   13   SE      1
    7   13   ES     -5
    7   13   EE     -3
    7   14   SS     12
    7   14   SE    -10
    7   14   ES     -9
    7   14   EE    -11
    7   16   SS     -4
    7   16   SE      5
    7   16   ES     -2
    7   16   EE      2
    8   17   SS      5
    8   17   SE     10
    8   17   ES      1
    8   17   EE      2
    9   13   SS     -9
    9   13   SE     -8
   13    9   SE      0
    9   13   ES      0
    9   13   EE     -2
    9   19   SS      3
    9   19   SE     10
    9   19   ES     -7
    9   19   EE      5
    9   20   SS    -10
    9   20   SE      5
    9   20   ES     -8
    9   20   EE     12
   10   11   SS      6
   10   11   SE     -9
   10   11   ES     -7
   10   11   EE      3
   10   14   SS     12
   10   14   SE      5
   10   14   ES      7
   10   14   EE      8
   10   16   SS      5
   10   16   SE      4
   10   16   ES     -1
   10   16   EE      8
   11   17   SS     -7
   11   17   SE     -4
   11   17   ES      6
   11   17   EE      9
   11   18   SS      6
   11   18   SE    -10
   11   18   ES      7
   11   18   EE      0
   12   15   SS    -12
   12   15   SE      8
   12   15   ES      4
   12   15   EE     -3
   13   21   SS     -9
   13   21   SE     11
   13   21   ES     10
   13   21   EE     -1
   14   18   SS      9
   14   18   SE      5
   14   18   ES     12
   14   18   EE     -2
   14   19   SS     -1
   14   19   SE     -6
   14   19   ES      2
   14   19   EE     10
   15   17   SS     -5
   15   17   SE    -11
   15   17   ES     10
   15   17   EE     -4
   15   20   SS     -6
   15   20   SE      2
   15   20   ES      1
   15   20   EE     -6
   16   21   SS     -9
   16   21   SE      4
   16   21   ES     -2
   16   21   EE     -1
   17   19   SS      6
   17   19   SE      0
   17   19   ES      3
   17   19   EE    -12
   17   21   SS      3
   17   21   SE     -9
   17   21   ES      1
   17   21   EE     12
   18   20   SS      7
   18   20   SE     -4
   18   20   ES     -4
   18   20   EE      5
************************************************************************
